52
68
0
0
59
40
0
112
74
145
47
58
66
127
45
128
40
207
86
211
59
71
81
69
0
21
76
41
154
51
132
71
65
51
29
89
71
133
102
0
69
93
81
31
120
98
62
61
71
97
99
86
59
0
66
67
151
57
107
99
147
76
42
147
112
37
185
143
55
197
77
0
57
97
90
49
98
66
0
49
310
62
91
123
83
117
82
131
117
92
113
116
273
27
34
38
94
54
165
82
